p cnf 13 12
e 1 2 3 0
a 4 5 0
e 6 7 8 0
a 9 10 0
e 11 12 13 0
1 3 -4 7 6 -10 12 13 0
1 -3 4 8 -7 -10 -11 -13 0
1 -3 5 -6 -8 9 -13 11 0
3 -2 4 -6 -7 -10 -11 -12 0
-2 -1 -4 -6 -8 10 13 11 0
3 -2 -5 8 -7 -9 12 11 0
-1 3 5 6 -7 -9 -13 -11 0
-3 2 5 8 -6 -9 13 -11 0
3 -1 -4 8 -7 -9 11 -12 0
2 1 4 7 -6 -9 13 12 0
3 1 -5 -7 -6 -9 -11 12 0
-2 1 5 6 -7 9 -13 -12 0
